(declare-fun bvlambda_8_ ()Bool         )
(declare-fun bvlambda_9_ () (_ BitVec 2))
(declare-fun a136 () (Array (_ BitVec 1) (_ BitVec 12)))
(assert
(let (($e1 (_ bv0 1)))
(let (($e19 (_ bv6 13)))
(let (($e28 (_ bv6 8)))
(let (($e160 ((_ extract 12 1) $e19 )))
(let (($e161 (store a136 $e1        $e160 )))
(let (($e280 (store a136 bvlambda_8_  $e160)))
(let (($e281 (select $e280 $e1  )))
(let (($e355         bvlambda_9_             ))
(let (($e356         $e355              ))
(let (($e380 (select $e161 bvlambda_8_)))
(let (($e383 (   extract        $e380)))
(let (($e744 (   extract        $e281)))
(let (($e949 (select $e161 true      )))
(let (($e950 (   extract        $e949)))
(let (($e977                $e28        ))
(let (($e981 (bvand        $e383  bvlambda_8_)))
(let (($e989 (bvult $e744 $e981)))
              (bvand (bvnot $e989 ) $e950)
                                                                                                                                                                                                                                                                                                                                                                                                                                                                                                                                                                                                                                                                                                                                                                                                                                                                                                                                                                                                                                                                                                                                                                     )       )   )                          ))                                                                                                                                                                                                            )                                                                                                                                                                                                                                                                                                                                                                        )  )                       ))                                                                         ))                                                                                                                      ))                                                                                          )        )                 ))
